
Gurobi 11.0.3 (linux64) logging started Fri Nov 22 23:56:53 2024

Set parameter LogFile to value "/home/yihong/Coding/OR_SUC/SUC_results_bigM100000_thread4/case24_ieee_rts_theta0.1_epsilon0.025_gurobi_seed500000_num_gen100_N_WDR100_load_scaling_factor1_proposed_T24quadra_cost.txt"
Set parameter TimeLimit to value 3600
Gurobi Optimizer version 11.0.3 build v11.0.3rc0 (linux64 - "Ubuntu 20.04.6 LTS")

CPU model: AMD EPYC 7532 32-Core Processor, instruction set [SSE2|AVX|AVX2]
Thread count: 64 physical cores, 128 logical processors, using up to 4 threads

Optimize a model with 51942 rows, 29861 columns and 708794 nonzeros
Model fingerprint: 0x1cf25eaf
Model has 2400 quadratic constraints
Variable types: 27461 continuous, 2400 integer (2400 binary)
Coefficient statistics:
  Matrix range     [3e-04, 2e+03]
  QMatrix range    [2e-03, 8e-03]
  QLMatrix range   [6e-02, 6e+01]
  Objective range  [1e+00, 1e+00]
  Bounds range     [1e+00, 1e+00]
  RHS range        [1e+00, 9e+03]
Presolve removed 42099 rows and 12928 columns
Presolve time: 0.25s
Presolved: 9843 rows, 16933 columns, 62316 nonzeros
Presolved model has 2400 quadratic constraint(s)
Variable types: 14533 continuous, 2400 integer (2400 binary)

Root relaxation: objective 3.965435e+04, 8235 iterations, 0.23 seconds (0.33 work units)

    Nodes    |    Current Node    |     Objective Bounds      |     Work
 Expl Unexpl |  Obj  Depth IntInf | Incumbent    BestBd   Gap | It/Node Time

     0     0 39654.3457    0    -          - 39654.3457      -     -    0s
     0     0 401547.342    0  696          - 401547.342      -     -    1s
H    0     0                    832768.46056 644218.383  22.6%     -    1s
     0     0 644218.383    0  633 832768.461 644218.383  22.6%     -    1s
     0     0 644255.326    0  282 832768.461 644255.326  22.6%     -    1s
     0     0 644500.954    0   65 832768.461 644500.954  22.6%     -    1s
     0     0 644501.421    0   65 832768.461 644501.421  22.6%     -    1s
     0     0 644501.421    0   65 832768.461 644501.421  22.6%     -    1s
     0     0 644518.051    0   65 832768.461 644518.051  22.6%     -    2s
     0     2 644518.051    0   65 832768.461 644518.051  22.6%     -    2s
H   77    81                    644726.87398 644530.411  0.03%  41.5    4s
*   77    81              22    644726.87398 644530.411  0.03%  41.6    4s

Cutting planes:
  Gomory: 93
  Implied bound: 343
  MIR: 100
  Flow cover: 229
  RLT: 315
  Relax-and-lift: 113

Explored 84 nodes (24389 simplex iterations) in 5.46 seconds (7.32 work units)
Thread count was 4 (of 128 available processors)

Solution count 3: 644727 644727 832768 

Optimal solution found (tolerance 1.00e-03)
Warning: max constraint violation (3.0187e-07) exceeds tolerance
Best objective 6.447268739842e+05, best bound 6.445304107755e+05, gap 0.0305%
